Challenges/Crypto/knapsack/cipher.txt
8703069044064992980691645216228835950106263379927508937942531569993354329986256810732900394653277635213670500295460644516991609330265312463889953990340253229385648685715155806817099739383560576384836321881286500659708484627359616398640033155043949415229969716791144119529632481124333945855399331818083663514841663780792990120053753287317104593060986093346705913852023